param n := 2;

param m := 2;

param K := 500;

param a :=
1 	 0.459880
2 	 0.546347
;
 param A :=
[1, *, *]:  1	2	:=
1	0.597207	-0.019493	
2	-0.428562	0.198221	

[2, *, *]:  1	2	:=
1	-0.968933	-0.132647	
2	0.186963	0.614721	
;